c File: flat50_3_0.col
c
c SOURCE: Joseph Culberson (joe@cs.ualberta.ca)
c DESCRIPTION: Quasi-random coloring problem
c              generated with flatness = 0
c                             probability = 0.139
c                             known coloring = 3
c                             random seed = 1738
c              Creation Date:  Tue Jun  9 12:16:39 1998
c Maximum degree = 8 Minimum degree = 1
c p edge 50 115
c cnf created by edge2cnf
p cnf 150 545
-1 -2 0
-1 -3 0
-2 -3 0
1 2 3 0
-4 -5 0
-4 -6 0
-5 -6 0
4 5 6 0
-7 -8 0
-7 -9 0
-8 -9 0
7 8 9 0
-10 -11 0
-10 -12 0
-11 -12 0
10 11 12 0
-13 -14 0
-13 -15 0
-14 -15 0
13 14 15 0
-16 -17 0
-16 -18 0
-17 -18 0
16 17 18 0
-19 -20 0
-19 -21 0
-20 -21 0
19 20 21 0
-22 -23 0
-22 -24 0
-23 -24 0
22 23 24 0
-25 -26 0
-25 -27 0
-26 -27 0
25 26 27 0
-28 -29 0
-28 -30 0
-29 -30 0
28 29 30 0
-31 -32 0
-31 -33 0
-32 -33 0
31 32 33 0
-34 -35 0
-34 -36 0
-35 -36 0
34 35 36 0
-37 -38 0
-37 -39 0
-38 -39 0
37 38 39 0
-40 -41 0
-40 -42 0
-41 -42 0
40 41 42 0
-43 -44 0
-43 -45 0
-44 -45 0
43 44 45 0
-46 -47 0
-46 -48 0
-47 -48 0
46 47 48 0
-49 -50 0
-49 -51 0
-50 -51 0
49 50 51 0
-52 -53 0
-52 -54 0
-53 -54 0
52 53 54 0
-55 -56 0
-55 -57 0
-56 -57 0
55 56 57 0
-58 -59 0
-58 -60 0
-59 -60 0
58 59 60 0
-61 -62 0
-61 -63 0
-62 -63 0
61 62 63 0
-64 -65 0
-64 -66 0
-65 -66 0
64 65 66 0
-67 -68 0
-67 -69 0
-68 -69 0
67 68 69 0
-70 -71 0
-70 -72 0
-71 -72 0
70 71 72 0
-73 -74 0
-73 -75 0
-74 -75 0
73 74 75 0
-76 -77 0
-76 -78 0
-77 -78 0
76 77 78 0
-79 -80 0
-79 -81 0
-80 -81 0
79 80 81 0
-82 -83 0
-82 -84 0
-83 -84 0
82 83 84 0
-85 -86 0
-85 -87 0
-86 -87 0
85 86 87 0
-88 -89 0
-88 -90 0
-89 -90 0
88 89 90 0
-91 -92 0
-91 -93 0
-92 -93 0
91 92 93 0
-94 -95 0
-94 -96 0
-95 -96 0
94 95 96 0
-97 -98 0
-97 -99 0
-98 -99 0
97 98 99 0
-100 -101 0
-100 -102 0
-101 -102 0
100 101 102 0
-103 -104 0
-103 -105 0
-104 -105 0
103 104 105 0
-106 -107 0
-106 -108 0
-107 -108 0
106 107 108 0
-109 -110 0
-109 -111 0
-110 -111 0
109 110 111 0
-112 -113 0
-112 -114 0
-113 -114 0
112 113 114 0
-115 -116 0
-115 -117 0
-116 -117 0
115 116 117 0
-118 -119 0
-118 -120 0
-119 -120 0
118 119 120 0
-121 -122 0
-121 -123 0
-122 -123 0
121 122 123 0
-124 -125 0
-124 -126 0
-125 -126 0
124 125 126 0
-127 -128 0
-127 -129 0
-128 -129 0
127 128 129 0
-130 -131 0
-130 -132 0
-131 -132 0
130 131 132 0
-133 -134 0
-133 -135 0
-134 -135 0
133 134 135 0
-136 -137 0
-136 -138 0
-137 -138 0
136 137 138 0
-139 -140 0
-139 -141 0
-140 -141 0
139 140 141 0
-142 -143 0
-142 -144 0
-143 -144 0
142 143 144 0
-145 -146 0
-145 -147 0
-146 -147 0
145 146 147 0
-148 -149 0
-148 -150 0
-149 -150 0
148 149 150 0
-82 -1 0
-83 -2 0
-84 -3 0
-124 -1 0
-125 -2 0
-126 -3 0
-136 -1 0
-137 -2 0
-138 -3 0
-145 -1 0
-146 -2 0
-147 -3 0
-70 -4 0
-71 -5 0
-72 -6 0
-82 -4 0
-83 -5 0
-84 -6 0
-106 -4 0
-107 -5 0
-108 -6 0
-136 -4 0
-137 -5 0
-138 -6 0
-58 -7 0
-59 -8 0
-60 -9 0
-64 -7 0
-65 -8 0
-66 -9 0
-103 -7 0
-104 -8 0
-105 -9 0
-142 -7 0
-143 -8 0
-144 -9 0
-58 -10 0
-59 -11 0
-60 -12 0
-100 -10 0
-101 -11 0
-102 -12 0
-112 -10 0
-113 -11 0
-114 -12 0
-115 -10 0
-116 -11 0
-117 -12 0
-121 -10 0
-122 -11 0
-123 -12 0
-136 -10 0
-137 -11 0
-138 -12 0
-52 -13 0
-53 -14 0
-54 -15 0
-61 -13 0
-62 -14 0
-63 -15 0
-82 -13 0
-83 -14 0
-84 -15 0
-94 -13 0
-95 -14 0
-96 -15 0
-124 -13 0
-125 -14 0
-126 -15 0
-127 -13 0
-128 -14 0
-129 -15 0
-133 -13 0
-134 -14 0
-135 -15 0
-145 -13 0
-146 -14 0
-147 -15 0
-61 -16 0
-62 -17 0
-63 -18 0
-100 -16 0
-101 -17 0
-102 -18 0
-130 -16 0
-131 -17 0
-132 -18 0
-148 -16 0
-149 -17 0
-150 -18 0
-55 -19 0
-56 -20 0
-57 -21 0
-67 -19 0
-68 -20 0
-69 -21 0
-85 -19 0
-86 -20 0
-87 -21 0
-118 -19 0
-119 -20 0
-120 -21 0
-142 -19 0
-143 -20 0
-144 -21 0
-145 -19 0
-146 -20 0
-147 -21 0
-55 -22 0
-56 -23 0
-57 -24 0
-61 -22 0
-62 -23 0
-63 -24 0
-85 -22 0
-86 -23 0
-87 -24 0
-133 -22 0
-134 -23 0
-135 -24 0
-76 -25 0
-77 -26 0
-78 -27 0
-79 -25 0
-80 -26 0
-81 -27 0
-97 -25 0
-98 -26 0
-99 -27 0
-109 -25 0
-110 -26 0
-111 -27 0
-130 -25 0
-131 -26 0
-132 -27 0
-148 -25 0
-149 -26 0
-150 -27 0
-88 -28 0
-89 -29 0
-90 -30 0
-103 -28 0
-104 -29 0
-105 -30 0
-64 -31 0
-65 -32 0
-66 -33 0
-55 -34 0
-56 -35 0
-57 -36 0
-94 -34 0
-95 -35 0
-96 -36 0
-121 -34 0
-122 -35 0
-123 -36 0
-52 -37 0
-53 -38 0
-54 -39 0
-61 -37 0
-62 -38 0
-63 -39 0
-73 -37 0
-74 -38 0
-75 -39 0
-85 -37 0
-86 -38 0
-87 -39 0
-121 -37 0
-122 -38 0
-123 -39 0
-130 -37 0
-131 -38 0
-132 -39 0
-142 -37 0
-143 -38 0
-144 -39 0
-145 -37 0
-146 -38 0
-147 -39 0
-73 -40 0
-74 -41 0
-75 -42 0
-88 -40 0
-89 -41 0
-90 -42 0
-100 -40 0
-101 -41 0
-102 -42 0
-124 -40 0
-125 -41 0
-126 -42 0
-142 -40 0
-143 -41 0
-144 -42 0
-58 -43 0
-59 -44 0
-60 -45 0
-127 -43 0
-128 -44 0
-129 -45 0
-139 -43 0
-140 -44 0
-141 -45 0
-55 -46 0
-56 -47 0
-57 -48 0
-64 -46 0
-65 -47 0
-66 -48 0
-91 -46 0
-92 -47 0
-93 -48 0
-94 -46 0
-95 -47 0
-96 -48 0
-118 -46 0
-119 -47 0
-120 -48 0
-121 -46 0
-122 -47 0
-123 -48 0
-64 -49 0
-65 -50 0
-66 -51 0
-85 -49 0
-86 -50 0
-87 -51 0
-112 -49 0
-113 -50 0
-114 -51 0
-127 -49 0
-128 -50 0
-129 -51 0
-103 -52 0
-104 -53 0
-105 -54 0
-118 -52 0
-119 -53 0
-120 -54 0
-139 -52 0
-140 -53 0
-141 -54 0
-148 -52 0
-149 -53 0
-150 -54 0
-106 -61 0
-107 -62 0
-108 -63 0
-112 -61 0
-113 -62 0
-114 -63 0
-115 -61 0
-116 -62 0
-117 -63 0
-142 -61 0
-143 -62 0
-144 -63 0
-103 -64 0
-104 -65 0
-105 -66 0
-136 -64 0
-137 -65 0
-138 -66 0
-142 -64 0
-143 -65 0
-144 -66 0
-103 -67 0
-104 -68 0
-105 -69 0
-127 -67 0
-128 -68 0
-129 -69 0
-139 -67 0
-140 -68 0
-141 -69 0
-115 -73 0
-116 -74 0
-117 -75 0
-136 -73 0
-137 -74 0
-138 -75 0
-106 -79 0
-107 -80 0
-108 -81 0
-118 -79 0
-119 -80 0
-120 -81 0
-133 -79 0
-134 -80 0
-135 -81 0
-127 -82 0
-128 -83 0
-129 -84 0
-139 -82 0
-140 -83 0
-141 -84 0
-121 -85 0
-122 -86 0
-123 -87 0
-145 -85 0
-146 -86 0
-147 -87 0
-103 -88 0
-104 -89 0
-105 -90 0
-106 -88 0
-107 -89 0
-108 -90 0
-124 -91 0
-125 -92 0
-126 -93 0
-139 -91 0
-140 -92 0
-141 -93 0
-148 -91 0
-149 -92 0
-150 -93 0
-106 -94 0
-107 -95 0
-108 -96 0
-136 -94 0
-137 -95 0
-138 -96 0
-142 -94 0
-143 -95 0
-144 -96 0
-109 -97 0
-110 -98 0
-111 -99 0
-118 -97 0
-119 -98 0
-120 -99 0
-133 -97 0
-134 -98 0
-135 -99 0
-145 -97 0
-146 -98 0
-147 -99 0
-112 -100 0
-113 -101 0
-114 -102 0
-133 -100 0
-134 -101 0
-135 -102 0
